JulietBench/Juliet_Based_Patch_Bench/qemu/CWE-189-Numeric-Errors/CVE_2016_2538_fe3c546c5ff2a6210f9a4d8561cc64051ca8603e/cve1/Resultrndis_query_response2_patch1NEQ.smt2
; benchmark generated from python API
(set-info :status unknown)
(declare-fun R () (_ BitVec 32))
(declare-fun rdi () (_ BitVec 64))
(assert
 (let (($x165 (= (_ bv4294967293 32) R)))
 (let ((?x6 ((_ extract 31 0) rdi)))
 (let (($x59 (bvugt (_ bv9 32) ?x6)))
 (let (($x170 (and $x59 $x165)))
 (let (($x50 (bvule (_ bv9 32) ?x6)))
 (let (($x162 (bvuge (_ bv4294967288 32) ?x6)))
 (let (($x169 (and $x162 $x50 $x165)))
 (let (($x58 (= (_ bv0 32) R)))
 (let (($x46 (bvult (_ bv4294967288 32) ?x6)))
 (let (($x43 (bvuge ?x6 (_ bv1 32))))
 (let (($x168 (and $x43 $x46 $x50 $x58)))
 (let (($x171 (or $x168 $x169 $x170)))
 (let (($x174 (not $x171)))
 (let (($x11 (bvult ?x6 (_ bv1 32))))
 (let (($x166 (and $x11 $x165)))
 (let (($x51 (and $x43 $x58)))
 (let (($x167 (or $x51 $x166)))
 (let (($x173 (not $x167)))
 (let (($x175 (and $x173 $x174)))
 (let (($x172 (and $x167 $x171)))
 (let (($x176 (or $x172 $x175)))
 (not $x176)))))))))))))))))))))))
(check-sat)
